12 32 6 10
15 7 2 16 1 1 12 1 20 6 20 12 16 4 6 7 2 11 16 4 6 10 14 20 12 20 9 8 16 7 19 17 
12.27 7.27 9.97 4.28 1.74 7.83 5.18 5.98 10.22 0.04 13.96 6.87 8.2 2 4.32 1.76 15.32 15.61 1.71 11.26 4.99 8.28 11.42 5.98 0.92 9.2 8.62 4.63 12.25 2.06 2.07 14.5 
4.48 10.52 13.71 0.81 15.93 13.27 5.18 10.4 7.22 8.69 5.43 4.82 5.34 14.02 14.66 4.09 9.34 7.33 2.29 2.69 9.04 1.06 13.61 7.75 11.13 11.64 6.67 10.74 15.23 12.01 14.48 9.97 
11.95 5.04 13.7 8.54 8.06 0.68 3.05 6.21 11.24 7.61 10.37 0.05 5.06 1.6 6.09 3.47 11.17 7.2 0.65 13.26 11.96 11.28 12.49 5.14 13.59 13.13 15.26 2.68 2.52 9.66 11.72 6.99 
4.61 9.95 5.62 13.37 14.32 0.78 9.31 2.79 9.84 9.81 6.48 11.32 2.05 14.14 12.69 7.08 12.22 7.29 5.45 2.58 13 0.77 1.99 6.27 15.33 15.19 1.32 2.92 10.68 0.73 6.35 9.26 
13.51 13.29 0.73 6.98 0.71 9.54 3.14 10.43 0.62 4.87 4.78 6.46 5.26 9.81 1.03 6.93 4.5 9.16 7.52 9.3 8.29 8.6 12.72 0.21 10.46 6.25 11.48 3.18 14.08 8.74 4.63 2.47 
8.62 4.67 12.19 10.76 3.98 11.36 0.1 2.96 7.09 3.1 5.61 4.68 9.06 2.22 1.68 12.98 8.46 12.15 15.83 14.44 15.73 5.81 7.19 5.09 3.38 3.46 3.35 14.59 9.35 10.45 1.86 10.43 
8 8 8 8 8 8 8 8 8 8 8 8 8 8 8 8 8 8 8 8 8 8 8 8 8 8 8 8 8 8 8 8 
3.8 7.8 14.2 12.48 15.69 3.21 5.16 4.29 10.57 13.98 10.96 13.76 12.31 6.8 15.96 10.22 10.52 10.71 10.75 11.36 1.1 1.92 15.81 11.47 6.37 15.84 10.02 1.69 1.47 2.66 14.9 13.03 
4.64 6.43 4.2 15.31 11.27 11.18 13.57 7.13 3.66 1.44 14.23 3.63 14.06 7.2 14.91 4.75 13.93 6.88 14.64 13.83 7.46 11.77 0.21 8.61 0.89 8.89 5.09 7.24 12 0.76 14.49 5.74 
13.7 0.75 13.45 7.97 8.11 12.75 8.71 7.02 2.8 4.97 3.36 3.65 3.71 5.98 10.2 6.14 11.6 1.14 0.15 7.62 2.34 2.14 12.51 11.69 11.45 12.15 5.07 7.85 14.61 14.63 4.68 8.49 
6.49 10.48 4.9 1.39 12.26 1.9 4.67 0.17 9.72 5.15 2.24 8.64 8.05 9.78 9.22 2.63 10.09 13.73 4.62 8.38 4.69 15.78 11.9 6.56 4.22 3.76 1.62 15.05 4.26 4.72 4.79 5.59 
14.49 11.75 4.06 6.86 14.14 10.57 0.29 12.21 0.2 12.57 8.34 14.25 11.41 5.56 5.08 7.26 1.11 12.89 10.76 13.88 7.51 2.56 6.68 5.9 13.56 7.58 2.74 7.73 15.98 2 9.82 14.64 
1 1 1 1 1 1 1 1 1 1 1 1 1 1 1 1 1 1 1 1 1 1 1 1 1 1 1 1 1 1 1 1 
1 1 1 1 1 1 1 1 1 1 1 1 1 1 1 1 1 1 1 1 1 1 1 1 1 1 1 1 1 1 1 1 
1 1 1 1 1 1 1 1 1 1 1 1 1 1 1 1 1 1 1 1 1 1 1 1 1 1 1 1 1 1 1 1 
1 1 1 1 1 1 1 1 1 1 1 1 1 1 1 1 1 1 1 1 1 1 1 1 1 1 1 1 1 1 1 1 
1 1 1 1 1 1 1 1 1 1 1 1 1 1 1 1 1 1 1 1 1 1 1 1 1 1 1 1 1 1 1 1 
1 1 1 1 1 1 1 1 1 1 1 1 1 1 1 1 1 1 1 1 1 1 1 1 1 1 1 1 1 1 1 1 
1 1 1 1 1 1 1 1 1 1 1 1 1 1 1 1 1 1 1 1 1 1 1 1 1 1 1 1 1 1 1 1 
1 1 1 1 1 1 1 1 1 1 1 1 1 1 1 1 1 1 1 1 1 1 1 1 1 1 1 1 1 1 1 1 
1 1 1 1 1 1 1 1 1 1 1 1 1 1 1 1 1 1 1 1 1 1 1 1 1 1 1 1 1 1 1 1 
1 1 1 1 1 1 1 1 1 1 1 1 1 1 1 1 1 1 1 1 1 1 1 1 1 1 1 1 1 1 1 1 
1 1 1 1 1 1 1 1 1 1 1 1 1 1 1 1 1 1 1 1 1 1 1 1 1 1 1 1 1 1 1 1 
1 1 1 1 1 1 1 1 1 1 1 1 1 1 1 1 1 1 1 1 1 1 1 1 1 1 1 1 1 1 1 1 
0.01 0.01 0.01 0.01 0.01 0.01 0.01 0.01 0.01 0.01 0.01 0.01 0.01 0.01 0.01 0.01 0.01 0.01 0.01 0.01 0.01 0.01 0.01 0.01 0.01 0.01 0.01 0.01 0.01 0.01 0.01 0.01 
0.02 0.02 0.02 0.02 0.02 0.02 0.02 0.02 0.02 0.02 0.02 0.02 0.02 0.02 0.02 0.02 0.02 0.02 0.02 0.02 0.02 0.02 0.02 0.02 0.02 0.02 0.02 0.02 0.02 0.02 0.02 0.02 
0.03 0.03 0.03 0.03 0.03 0.03 0.03 0.03 0.03 0.03 0.03 0.03 0.03 0.03 0.03 0.03 0.03 0.03 0.03 0.03 0.03 0.03 0.03 0.03 0.03 0.03 0.03 0.03 0.03 0.03 0.03 0.03 
0.04 0.04 0.04 0.04 0.04 0.04 0.04 0.04 0.04 0.04 0.04 0.04 0.04 0.04 0.04 0.04 0.04 0.04 0.04 0.04 0.04 0.04 0.04 0.04 0.04 0.04 0.04 0.04 0.04 0.04 0.04 0.04 
0.05 0.05 0.05 0.05 0.05 0.05 0.05 0.05 0.05 0.05 0.05 0.05 0.05 0.05 0.05 0.05 0.05 0.05 0.05 0.05 0.05 0.05 0.05 0.05 0.05 0.05 0.05 0.05 0.05 0.05 0.05 0.05 
0.06 0.06 0.06 0.06 0.06 0.06 0.06 0.06 0.06 0.06 0.06 0.06 0.06 0.06 0.06 0.06 0.06 0.06 0.06 0.06 0.06 0.06 0.06 0.06 0.06 0.06 0.06 0.06 0.06 0.06 0.06 0.06 
0.07 0.07 0.07 0.07 0.07 0.07 0.07 0.07 0.07 0.07 0.07 0.07 0.07 0.07 0.07 0.07 0.07 0.07 0.07 0.07 0.07 0.07 0.07 0.07 0.07 0.07 0.07 0.07 0.07 0.07 0.07 0.07 
0.2 0.2 0.2 0.2 0.2 0.2 0.2 0.2 0.2 0.2 0.2 0.2 0.2 0.2 0.2 0.2 0.2 0.2 0.2 0.2 0.2 0.2 0.2 0.2 0.2 0.2 0.2 0.2 0.2 0.2 0.2 0.2 
0.4 0.4 0.4 0.4 0.4 0.4 0.4 0.4 0.4 0.4 0.4 0.4 0.4 0.4 0.4 0.4 0.4 0.4 0.4 0.4 0.4 0.4 0.4 0.4 0.4 0.4 0.4 0.4 0.4 0.4 0.4 0.4 
0.6 0.6 0.6 0.6 0.6 0.6 0.6 0.6 0.6 0.6 0.6 0.6 0.6 0.6 0.6 0.6 0.6 0.6 0.6 0.6 0.6 0.6 0.6 0.6 0.6 0.6 0.6 0.6 0.6 0.6 0.6 0.6 
0.8 0.8 0.8 0.8 0.8 0.8 0.8 0.8 0.8 0.8 0.8 0.8 0.8 0.8 0.8 0.8 0.8 0.8 0.8 0.8 0.8 0.8 0.8 0.8 0.8 0.8 0.8 0.8 0.8 0.8 0.8 0.8 
1 1 1 1 1 1 1 1 1 1 1 1 1 1 1 1 1 1 1 1 1 1 1 1 1 1 1 1 1 1 1 1 
